s td 71 35 114
b 1 3 4 88
b 2 5 66 81
b 3 6 33 76
b 4 7 23 102
b 5 9 29 110
b 6 10 23 112
b 7 17 38 72
b 8 21 79 96
b 9 2 26 79
b 10 30 58 90
b 11 13 23 32
b 12 1 36 90
b 13 12 29 43
b 14 23 48 49
b 15 19 56 90
b 16 55 60 64
b 17 31 77 79
b 18 83 90 103
b 19 29 61 85
b 20 29 63 91
b 21 81 94 97
b 22 75 99 114
b 23 81 100 105
b 24 29 70 101
b 25 40 81 104
b 26 52 108 114
b 27 45 79 109
b 28 1 82 90
b 29 2 19 79
b 30 13 23 27
b 31 19 40 81
b 32 31 46 79 87
b 33 52 65 114
b 34 65 75 114
b 35 29 45 61
b 36 29 31 45 79
b 37 29 63 94
b 38 29 55 70
b 39 4 59 88
b 40 81 105 112
b 41 23 81 112
b 42 12 29 90 95
b 43 15 31 59 114
b 44 4 8 11 16 18 20 22 23 24 25 27 28 33 34 37 44 53 54 57 62 64 67 68 69 73 78 79 80 82 86 89 98 106 107 114
b 45 4 8 16 18 20 22 23 24 25 27 28 33 34 35 37 44 53 54 57 62 64 67 68 69 73 78 79 80 82 86 89 98 106 107 114
b 46 4 8 16 18 20 22 23 24 25 27 28 33 34 35 37 41 44 53 54 57 67 68 69 73 78 79 80 82 86 89 98 106 107
b 47 4 8 16 18 20 22 23 24 27 28 33 34 35 37 41 44 53 54 67 68 69 78 79 80 82 84 86 89 98 106 107
b 48 4 8 18 20 23 24 27 28 33 34 35 37 41 51 53 54 67 68 69 78 80 82 84 86 89 98 106 107
b 49 4 8 18 20 23 24 27 28 33 35 37 50 51 53 67 69 78 80 82 84 86 89 98 106
b 50 4 8 18 23 24 27 28 33 35 37 50 51 53 67 69 74 78 80 82 84 86 98 106
b 51 4 14 18 23 24 27 28 33 35 37 51 53 67 69 74 78 80 82 86 98 106
b 52 14 18 23 24 27 33 35 51 53 67 69 74 82 86 92 106
b 53 18 24 35 51 67 69 74 82 86 92 93 106
b 54 4 23 25 41 42 57 82 106 107
b 55 4 8 11 16 18 20 22 23 24 25 27 28 29 33 34 37 44 53 54 57 62 64 67 68 69 73 78 79 80 82 86 89 106 107 114
b 56 4 8 11 16 18 20 22 23 24 25 27 28 29 33 34 37 44 53 54 62 64 67 68 69 73 78 79 80 81 82 89 106 107 114
b 57 4 11 16 18 20 22 23 24 25 27 28 29 33 34 44 53 54 62 64 67 68 69 73 78 79 80 81 82 89 106 107 111 114
b 58 4 16 18 20 22 23 24 25 27 28 29 33 34 44 53 54 62 64 68 69 72 78 79 80 81 82 89 106 107 111 114
b 59 4 16 18 22 23 24 25 27 28 29 33 34 44 47 53 54 62 64 68 69 72 78 79 80 81 82 106 107 111 114
b 60 4 16 18 22 23 24 25 27 28 29 33 34 44 47 53 54 62 68 69 78 79 80 81 82 106 107 111 113 114
b 61 4 16 23 24 27 28 29 33 34 47 53 68 69 79 81 82 90 107 111 113
b 62 19 79 81 90
b 63 29 90 95 113
b 64 4 11 16 22 27 28 34 44 64 65 69 73 80 81 89 106 111 114
b 65 4 29 31 64 79 89 114
b 66 29 31 55 64 79 89
b 67 4 31 59 114
b 68 11 22 24 27 28 29 33 34 39 57 67 79 82 86 107
b 69 8 11 25 28 34 37 57 71 73 78 79 80 89 106 114
b 70 31 55 79 87
b 71 8 29 81 94
1 39
2 56
3 44
4 44
5 55
6 41
7 58
8 44
9 29
10 61
11 30
12 28
13 42
14 44
15 62
16 66
17 65
18 61
19 35
20 37
21 71
22 34
23 40
24 38
25 31
26 33
27 36
28 61
29 62
30 44
31 62
32 70
33 64
34 64
35 36
36 65
37 71
38 66
39 67
40 41
41 56
42 63
43 67
44 45
44 55
44 69
45 46
46 47
46 54
47 48
48 49
49 50
50 51
51 52
52 53
55 56
55 65
55 68
56 71
56 57
57 58
57 64
58 59
59 60
60 61
61 62
61 63
65 66
65 67
66 70
